(set-logic QF_S)
(declare-fun var0 () String)
(declare-fun var1 () String)
(declare-fun var2 () String)
(declare-fun var3 () String)
(declare-fun var4 () String)
(declare-fun var5 () String)
(declare-fun var6 () String)
(declare-fun var7 () String)
(declare-fun var8 () String)
(declare-fun var9 () String)
(declare-fun var10 () String)
(declare-fun var11 () String)
(declare-fun var12 () String)
(declare-fun var13 () String)
(declare-fun var14 () String)
(declare-fun var15 () String)
(declare-fun var16 () String)
(declare-fun var17 () String)
(declare-fun var18 () String)
(declare-fun var19 () String)
(declare-fun var20 () String)
(declare-fun var21 () String)
(declare-fun var22 () String)
(declare-fun var23 () String)
(declare-fun var24 () String)
(declare-fun var25 () String)
(declare-fun var26 () String)
(declare-fun var27 () String)
(declare-fun var28 () String)
(declare-fun var29 () String)
(declare-fun var30 () String)
(declare-fun var31 () String)
(declare-fun var32 () String)
(declare-fun var33 () String)
(declare-fun var34 () String)
(declare-fun var35 () String)
(declare-fun var36 () String)
(declare-fun var37 () String)
(declare-fun var38 () String)
(declare-fun var39 () String)
(declare-fun var40 () String)
(declare-fun var41 () String)
(declare-fun var42 () String)
(declare-fun var43 () String)
(declare-fun var44 () String)
(declare-fun var45 () String)
(declare-fun var46 () String)
(declare-fun var47 () String)
(declare-fun var48 () String)
(declare-fun var49 () String)
(declare-fun var50 () String)
(declare-fun var51 () String)
(declare-fun var52 () String)
(declare-fun var53 () String)
(declare-fun var54 () String)
(declare-fun var55 () String)
(declare-fun var56 () String)
(declare-fun var57 () String)
(declare-fun var58 () String)
(declare-fun var59 () String)
(declare-fun var60 () String)
(assert (= var0 (Concat var1 var2)))
(assert (= var2 (Concat var3 var4)))
(assert (= var4 (Concat var5 var6)))
(assert (= var6 (Concat var7 var8)))
(assert (= var8 (Concat var9 var10)))
(assert (= var10 (Concat var11 var12)))
(assert (= var12 (Concat var13 var14)))
(assert (= var14 (Concat var15 var16)))
(assert (= var16 (Concat var17 var18)))
(assert (= var18 (Concat var19 var20)))
(assert (= var20 (Concat var21 var22)))
(assert (= var22 (Concat var23 var24)))
(assert (= var24 (Concat var25 var26)))
(assert (= var26 (Concat var27 var28)))
(assert (= var28 (Concat var29 var30)))
(assert (= var30 (Concat var31 var32)))
(assert (= var32 (Concat var33 var34)))
(assert (= var34 (Concat var35 var36)))
(assert (= var36 (Concat var37 var38)))
(assert (= var38 (Concat var39 var40)))
(assert (= var40 (Concat var41 var42)))
(assert (= var42 (Concat var43 var44)))
(assert (= var44 (Concat var45 var46)))
(assert (= var46 (Concat var47 var48)))
(assert (= var48 (Concat var49 var50)))
(assert (= var50 (Concat var51 var52)))
(assert (= var52 (Concat var53 var54)))
(assert (= var54 (Concat var55 var56)))
(assert (= var56 (Concat var57 var58)))
(assert (= var58 (Concat var59 var60)))
(assert (= var0 "solution"))
(assert (= "}" (CharAt var22 35)))
(assert (= "?" (CharAt var18 851)))
(assert (= "i" (CharAt var24 18)))
(assert (= "2" (CharAt var22 455)))
(assert (= "0" (CharAt var23 208)))
(assert (= ";" (CharAt var17 641)))
(assert (= "y" (CharAt var4 773)))
(assert (= "H" (CharAt var37 839)))
(assert (= "-" (CharAt var41 968)))
(assert (= "[" (CharAt var31 242)))
(assert (= "%" (CharAt var42 849)))
(assert (= "*" (CharAt var16 317)))
(assert (= ")" (CharAt var34 327)))
(assert (= "s" (CharAt var49 75)))
(assert (= "E" (CharAt var8 229)))
(assert (= "2" (CharAt var49 780)))
(assert (= "E" (CharAt var56 70)))
(assert (= ")" (CharAt var30 291)))
(assert (= "{" (CharAt var1 760)))
(assert (= "f" (CharAt var20 859)))
(assert (= "#" (CharAt var53 117)))
(assert (= "~" (CharAt var4 761)))
(assert (= "W" (CharAt var56 657)))
(assert (= "=" (CharAt var40 373)))
(assert (= "T" (CharAt var14 62)))
(assert (= "{" (CharAt var56 556)))
(assert (= "+" (CharAt var60 716)))
(assert (= "J" (CharAt var56 482)))
(assert (= "T" (CharAt var31 748)))
(assert (= "J" (CharAt var4 7)))
(assert (= "y" (CharAt var59 72)))
(assert (= "?" (CharAt var27 87)))
(assert (= "j" (CharAt var40 367)))
(assert (= "#" (CharAt var38 966)))
(assert (= "," (CharAt var16 763)))
(assert (= ">" (CharAt var2 101)))
(assert (= "K" (CharAt var13 97)))
(assert (= "a" (CharAt var50 617)))
(assert (= "e" (CharAt var33 979)))
(assert (= "Y" (CharAt var15 768)))
(assert (= "K" (CharAt var10 996)))
(assert (= "J" (CharAt var13 349)))
(assert (= "$" (CharAt var8 810)))
(assert (= "X" (CharAt var49 307)))
(assert (= "&" (CharAt var49 26)))
(assert (= ">" (CharAt var47 974)))
(assert (= "@" (CharAt var18 996)))
(assert (= "!" (CharAt var25 708)))
(assert (= "i" (CharAt var25 413)))
(assert (= "4" (CharAt var25 371)))
(assert (= "'" (CharAt var18 509)))
(assert (= "}" (CharAt var20 196)))
(assert (= "Q" (CharAt var49 56)))
(assert (= "f" (CharAt var39 874)))
(assert (= "M" (CharAt var7 987)))
(assert (= "/" (CharAt var41 208)))
(assert (= "0" (CharAt var8 274)))
(assert (= "J" (CharAt var43 593)))
(assert (= "2" (CharAt var15 214)))
(assert (= "`" (CharAt var3 247)))
(assert (= "G" (CharAt var21 572)))
(assert (= "~" (CharAt var26 866)))
(assert (= "N" (CharAt var44 820)))
(assert (= "z" (CharAt var27 218)))
(assert (= "x" (CharAt var40 991)))
(assert (= "y" (CharAt var57 27)))
(assert (= "Y" (CharAt var15 297)))
(assert (= "N" (CharAt var48 255)))
(assert (= "i" (CharAt var8 190)))
(assert (= "x" (CharAt var30 745)))
(assert (= "#" (CharAt var16 274)))
(assert (= "V" (CharAt var21 498)))
(assert (= "#" (CharAt var3 385)))
(assert (= "t" (CharAt var40 675)))
(assert (= "z" (CharAt var32 863)))
(assert (= "C" (CharAt var24 45)))
(assert (= "k" (CharAt var44 306)))
(assert (= "X" (CharAt var48 239)))
(assert (= "\"" (CharAt var50 926)))
(assert (= "3" (CharAt var18 297)))
(assert (= "j" (CharAt var31 723)))
(assert (= "E" (CharAt var25 110)))
(assert (= "Z" (CharAt var29 250)))
(assert (= "o" (CharAt var7 813)))
(assert (= "N" (CharAt var7 652)))
(assert (= "J" (CharAt var56 711)))
(assert (= "o" (CharAt var34 503)))
(assert (= "p" (CharAt var31 753)))
(assert (= "8" (CharAt var59 489)))
(assert (= "f" (CharAt var58 690)))
(assert (= "i" (CharAt var51 984)))
(assert (= "n" (CharAt var5 215)))
(assert (= "S" (CharAt var51 172)))
(assert (= "j" (CharAt var48 129)))
(assert (= "U" (CharAt var11 117)))
(assert (= "p" (CharAt var0 318)))
(assert (= "[" (CharAt var51 134)))
(assert (= "T" (CharAt var38 672)))
(assert (= "5" (CharAt var15 343)))
(assert (= "R" (CharAt var30 101)))
(assert (= "`" (CharAt var47 113)))
(assert (= "H" (CharAt var17 706)))
(assert (= "O" (CharAt var18 625)))
(assert (= "t" (CharAt var28 513)))
(assert (= "\"" (CharAt var44 243)))
(assert (= "9" (CharAt var12 786)))
(assert (= "$" (CharAt var59 382)))
(assert (= "\\" (CharAt var47 930)))
(assert (= "." (CharAt var55 237)))
(assert (= "q" (CharAt var32 310)))
(assert (= "+" (CharAt var44 744)))
(assert (= "0" (CharAt var35 961)))
(assert (= "M" (CharAt var7 526)))
(assert (= "A" (CharAt var36 956)))
(assert (= "9" (CharAt var24 113)))
(assert (= "^" (CharAt var25 374)))
(assert (= "+" (CharAt var26 465)))
(assert (= "w" (CharAt var42 510)))
(assert (= "9" (CharAt var20 809)))
(assert (= "Y" (CharAt var60 609)))
(assert (= "\\" (CharAt var5 470)))
(assert (= "1" (CharAt var56 421)))
(assert (= "o" (CharAt var35 908)))
(assert (= "x" (CharAt var1 543)))
(assert (= "1" (CharAt var36 85)))
(assert (= ">" (CharAt var26 975)))
(assert (= "y" (CharAt var15 494)))
(assert (= "8" (CharAt var32 9)))
(assert (= "S" (CharAt var24 297)))
(assert (= "c" (CharAt var29 783)))
(assert (= "/" (CharAt var29 20)))
(assert (= "]" (CharAt var30 638)))
(assert (= "=" (CharAt var35 523)))
(assert (= "F" (CharAt var60 142)))
(assert (= "5" (CharAt var58 532)))
(assert (= "N" (CharAt var34 348)))
(assert (= "u" (CharAt var48 808)))
(assert (= "W" (CharAt var31 238)))
(assert (= "V" (CharAt var31 93)))
(assert (= "F" (CharAt var44 126)))
(assert (= "L" (CharAt var47 694)))
(assert (= "." (CharAt var43 124)))
(assert (= "t" (CharAt var10 426)))
(assert (= "q" (CharAt var43 469)))
(assert (= "a" (CharAt var25 426)))
(assert (= "I" (CharAt var54 856)))
(assert (= "_" (CharAt var55 206)))
(assert (= "d" (CharAt var30 813)))
(assert (= ")" (CharAt var7 520)))
(assert (= "<" (CharAt var34 37)))
(assert (= "~" (CharAt var34 661)))
(assert (= "l" (CharAt var60 685)))
(assert (= "!" (CharAt var4 660)))
(assert (= "," (CharAt var49 596)))
(assert (= "g" (CharAt var51 947)))
(assert (= "S" (CharAt var7 593)))
(assert (= "3" (CharAt var5 664)))
(assert (= "M" (CharAt var18 810)))
(assert (= "x" (CharAt var44 107)))
(assert (= "#" (CharAt var7 264)))
(assert (= "m" (CharAt var33 327)))
(assert (= "I" (CharAt var34 573)))
(assert (= "l" (CharAt var21 598)))
(assert (= ";" (CharAt var16 648)))
(assert (= "i" (CharAt var10 595)))
(assert (= "^" (CharAt var34 680)))
(assert (= "`" (CharAt var17 235)))
(assert (= "+" (CharAt var14 608)))
(assert (= "B" (CharAt var25 328)))
(assert (= ")" (CharAt var60 852)))
(assert (= "-" (CharAt var20 791)))
(assert (= "[" (CharAt var11 361)))
(assert (= "-" (CharAt var8 138)))
(assert (= "B" (CharAt var10 168)))
(assert (= "D" (CharAt var1 332)))
(assert (= "i" (CharAt var11 731)))
(assert (= "%" (CharAt var25 286)))
(assert (= "-" (CharAt var12 846)))
(assert (= ")" (CharAt var54 363)))
(assert (= "#" (CharAt var30 984)))
(assert (= "1" (CharAt var50 259)))
(assert (= "|" (CharAt var43 370)))
(assert (= "q" (CharAt var5 282)))
(assert (= "Q" (CharAt var26 767)))
(assert (= "5" (CharAt var38 185)))
(assert (= "k" (CharAt var23 591)))
(assert (= "u" (CharAt var34 941)))
(assert (= "j" (CharAt var45 291)))
(assert (= "5" (CharAt var18 393)))
(assert (= "y" (CharAt var53 93)))
(assert (= "f" (CharAt var42 212)))
(assert (= "k" (CharAt var57 11)))
(assert (= "Z" (CharAt var40 301)))
(assert (= "Q" (CharAt var33 966)))
(assert (= "o" (CharAt var28 276)))
(assert (= ">" (CharAt var52 81)))
(assert (= "w" (CharAt var57 873)))
(assert (= "G" (CharAt var48 795)))
(assert (= "?" (CharAt var23 380)))
(assert (= "B" (CharAt var34 208)))
(assert (= "P" (CharAt var40 303)))
(assert (= "1" (CharAt var18 469)))
(assert (= "c" (CharAt var37 501)))
(assert (= "P" (CharAt var27 715)))
(assert (= "!" (CharAt var58 4)))
(assert (= "8" (CharAt var52 798)))
(assert (= "@" (CharAt var33 79)))
(assert (= "p" (CharAt var15 651)))
(assert (= "{" (CharAt var22 43)))
(assert (= "W" (CharAt var43 481)))
(assert (= "s" (CharAt var17 330)))
(assert (= "o" (CharAt var33 275)))
(assert (= "}" (CharAt var2 682)))
(assert (= "i" (CharAt var31 154)))
(assert (= "\"" (CharAt var0 498)))
(assert (= "j" (CharAt var52 200)))
(assert (= "2" (CharAt var48 188)))
(assert (= "*" (CharAt var55 498)))
(assert (= "S" (CharAt var30 920)))
(assert (= "8" (CharAt var31 390)))
(assert (= "K" (CharAt var1 646)))
(assert (= "F" (CharAt var11 190)))
(assert (= "s" (CharAt var39 24)))
(assert (= "U" (CharAt var35 531)))
(assert (= "m" (CharAt var34 403)))
(assert (= "'" (CharAt var46 758)))
(assert (= "N" (CharAt var23 213)))
(assert (= "(" (CharAt var2 25)))
(assert (= "r" (CharAt var1 248)))
(assert (= "~" (CharAt var56 100)))
(assert (= "D" (CharAt var31 548)))
(assert (= "*" (CharAt var35 600)))
(assert (= "=" (CharAt var56 998)))
(assert (= "x" (CharAt var8 752)))
(assert (= "o" (CharAt var34 567)))
(assert (= "}" (CharAt var52 477)))
(assert (= "=" (CharAt var42 771)))
(assert (= "J" (CharAt var33 985)))
(assert (= "," (CharAt var48 702)))
(assert (= "@" (CharAt var17 155)))
(assert (= "1" (CharAt var14 707)))
(assert (= "i" (CharAt var1 761)))
(assert (= "@" (CharAt var38 942)))
(assert (= "1" (CharAt var13 798)))
(assert (= "?" (CharAt var57 189)))
(assert (= "." (CharAt var15 777)))
(assert (= "w" (CharAt var29 25)))
(assert (= "Q" (CharAt var52 851)))
(assert (= "b" (CharAt var26 481)))
(assert (= "a" (CharAt var59 474)))
(assert (= "9" (CharAt var10 861)))
(assert (= "x" (CharAt var19 374)))
(assert (= "#" (CharAt var60 267)))
(assert (= "x" (CharAt var31 233)))
(assert (= "k" (CharAt var3 920)))
(assert (= "V" (CharAt var31 3)))
(assert (= "A" (CharAt var59 827)))
(assert (= "b" (CharAt var58 931)))
(assert (= "Y" (CharAt var50 306)))
(assert (= "*" (CharAt var56 922)))
(assert (= "9" (CharAt var17 574)))
(assert (= "o" (CharAt var15 328)))
(assert (= "7" (CharAt var19 397)))
(assert (= "6" (CharAt var52 737)))
(assert (= "^" (CharAt var55 386)))
(assert (= "E" (CharAt var33 53)))
(assert (= "{" (CharAt var52 327)))
(assert (= "r" (CharAt var38 978)))
(assert (= "A" (CharAt var46 272)))
(assert (= "1" (CharAt var57 336)))
(assert (= "=" (CharAt var26 197)))
(assert (= "Y" (CharAt var35 109)))
(assert (= "0" (CharAt var47 21)))
(assert (= "P" (CharAt var12 938)))
(assert (= "w" (CharAt var53 511)))
(assert (= "T" (CharAt var23 45)))
(assert (= "5" (CharAt var41 108)))
(assert (= "O" (CharAt var53 0)))
(assert (= "^" (CharAt var7 630)))
(assert (= "P" (CharAt var36 234)))
(assert (= "v" (CharAt var13 637)))
(assert (= "Y" (CharAt var28 149)))
(assert (= "h" (CharAt var17 962)))
(assert (= "(" (CharAt var31 36)))
(assert (= "^" (CharAt var13 821)))
(assert (= "v" (CharAt var5 792)))
(assert (= "9" (CharAt var40 81)))
(assert (= "=" (CharAt var58 517)))
(assert (= "{" (CharAt var9 920)))
(assert (= "k" (CharAt var2 540)))
(assert (= "~" (CharAt var27 814)))
(assert (= "!" (CharAt var55 123)))
(assert (= "O" (CharAt var5 407)))
(assert (= "}" (CharAt var49 528)))
(assert (= "@" (CharAt var30 221)))
(assert (= "=" (CharAt var27 966)))
(assert (= ";" (CharAt var12 700)))
(assert (= "K" (CharAt var34 306)))
(assert (= "h" (CharAt var19 78)))
(assert (= "q" (CharAt var19 923)))
(assert (= "q" (CharAt var46 87)))
(assert (= "9" (CharAt var20 961)))
(assert (= "*" (CharAt var1 814)))
(assert (= "M" (CharAt var35 131)))
(assert (= "~" (CharAt var29 415)))
(assert (= "|" (CharAt var23 685)))
(assert (= "?" (CharAt var18 387)))
(assert (= "O" (CharAt var43 64)))
(assert (= "w" (CharAt var13 378)))
(assert (= "j" (CharAt var15 972)))
(assert (= "*" (CharAt var16 745)))
(assert (= "M" (CharAt var55 730)))
(assert (= ":" (CharAt var0 930)))
(assert (= "\\" (CharAt var9 773)))
(assert (= "k" (CharAt var10 773)))
(assert (= "m" (CharAt var15 639)))
(assert (= "{" (CharAt var52 74)))
(assert (= "v" (CharAt var20 138)))
(assert (= "`" (CharAt var25 86)))
(assert (= "(" (CharAt var56 787)))
(assert (= "H" (CharAt var48 471)))
(assert (= "u" (CharAt var36 692)))
(assert (= "~" (CharAt var32 767)))
(assert (= "j" (CharAt var51 483)))
(assert (= "z" (CharAt var17 465)))
(assert (= "e" (CharAt var20 855)))
(assert (= "Z" (CharAt var54 489)))
(assert (= "4" (CharAt var16 319)))
(assert (= "o" (CharAt var2 195)))
(assert (= "v" (CharAt var16 460)))
(assert (= "#" (CharAt var31 7)))
(assert (= "0" (CharAt var15 592)))
(assert (= "t" (CharAt var37 917)))
(assert (= "'" (CharAt var10 221)))
(assert (= "6" (CharAt var9 184)))
(assert (= "q" (CharAt var58 830)))
(assert (= "x" (CharAt var26 334)))
(assert (= "(" (CharAt var59 285)))
(assert (= "^" (CharAt var32 751)))
(assert (= "g" (CharAt var36 37)))
(assert (= "4" (CharAt var44 536)))
(assert (= "Y" (CharAt var11 599)))
(assert (= "G" (CharAt var40 970)))
(assert (= "`" (CharAt var7 29)))
(assert (= "U" (CharAt var19 860)))
(assert (= "G" (CharAt var21 373)))
(assert (= "i" (CharAt var55 947)))
(assert (= "$" (CharAt var52 636)))
(assert (= "@" (CharAt var1 92)))
(assert (= "X" (CharAt var24 783)))
(assert (= "!" (CharAt var46 306)))
(assert (= "8" (CharAt var15 820)))
(assert (= "1" (CharAt var51 444)))
(assert (= "a" (CharAt var32 404)))
(assert (= "P" (CharAt var34 194)))
(assert (= "Y" (CharAt var16 805)))
(assert (= "]" (CharAt var7 342)))
(assert (= "[" (CharAt var28 784)))
(assert (= "q" (CharAt var9 421)))
(assert (= "l" (CharAt var23 842)))
(assert (= "k" (CharAt var59 46)))
(assert (= "[" (CharAt var55 953)))
(assert (= "I" (CharAt var47 248)))
(assert (= "m" (CharAt var52 607)))
(assert (= "3" (CharAt var55 788)))
(assert (= "*" (CharAt var40 942)))
(assert (= "9" (CharAt var43 466)))
(assert (= ";" (CharAt var31 529)))
(assert (= "w" (CharAt var40 246)))
(assert (= "#" (CharAt var3 426)))
(assert (= "5" (CharAt var23 616)))
(assert (= "X" (CharAt var18 5)))
(assert (= "2" (CharAt var47 850)))
(assert (= "j" (CharAt var50 836)))
(assert (= "F" (CharAt var14 978)))
(assert (= "x" (CharAt var12 310)))
(assert (= "F" (CharAt var29 480)))
(assert (= "`" (CharAt var51 457)))
(assert (= "<" (CharAt var21 315)))
(assert (= "n" (CharAt var59 403)))
(assert (= "V" (CharAt var36 99)))
(assert (= "7" (CharAt var4 641)))
(assert (= "1" (CharAt var43 530)))
(assert (= "t" (CharAt var43 643)))
(assert (= "T" (CharAt var5 810)))
(assert (= "%" (CharAt var49 543)))
(assert (= "$" (CharAt var14 40)))
(assert (= "3" (CharAt var55 809)))
(assert (= "9" (CharAt var17 813)))
(assert (= "r" (CharAt var5 139)))
(assert (= "|" (CharAt var42 669)))
(assert (= "I" (CharAt var6 17)))
(assert (= "c" (CharAt var1 996)))
(assert (= "@" (CharAt var40 129)))
(assert (= "%" (CharAt var12 321)))
(assert (= "/" (CharAt var40 972)))
(assert (= "X" (CharAt var13 173)))
(assert (= "q" (CharAt var43 768)))
(assert (= "<" (CharAt var31 740)))
(assert (= "N" (CharAt var12 997)))
(assert (= "L" (CharAt var31 775)))
(assert (= "F" (CharAt var27 887)))
(assert (= "M" (CharAt var24 504)))
(assert (= ";" (CharAt var23 12)))
(assert (= "j" (CharAt var55 585)))
(assert (= "A" (CharAt var38 878)))
(assert (= "<" (CharAt var14 213)))
(assert (= "<" (CharAt var39 924)))
(assert (= "D" (CharAt var34 632)))
(assert (= "P" (CharAt var17 346)))
(assert (= "S" (CharAt var17 131)))
(assert (= "x" (CharAt var47 383)))
(assert (= "Q" (CharAt var38 559)))
(assert (= "w" (CharAt var56 715)))
(assert (= "I" (CharAt var38 180)))
(assert (= "h" (CharAt var14 487)))
(assert (= "%" (CharAt var10 666)))
(assert (= "W" (CharAt var34 311)))
(assert (= "V" (CharAt var20 801)))
(assert (= "H" (CharAt var3 790)))
(assert (= "o" (CharAt var0 724)))
(assert (= "K" (CharAt var40 901)))
(assert (= "K" (CharAt var3 989)))
(assert (= "O" (CharAt var52 940)))
(assert (= "y" (CharAt var19 53)))
(assert (= "g" (CharAt var44 887)))
(assert (= "!" (CharAt var23 528)))
(assert (= "g" (CharAt var53 751)))
(assert (= "7" (CharAt var11 766)))
(assert (= "'" (CharAt var50 121)))
(assert (= "E" (CharAt var38 726)))
(assert (= "Z" (CharAt var12 646)))
(assert (= "7" (CharAt var42 347)))
(assert (= "Z" (CharAt var1 598)))
(assert (= "k" (CharAt var23 434)))
(assert (= "-" (CharAt var43 165)))
(assert (= "\"" (CharAt var60 485)))
(assert (= "+" (CharAt var37 305)))
(assert (= "[" (CharAt var32 853)))
(assert (= "f" (CharAt var6 151)))
(assert (= ")" (CharAt var59 99)))
(assert (= "0" (CharAt var54 476)))
(assert (= "e" (CharAt var17 452)))
(assert (= "g" (CharAt var53 903)))
(assert (= "I" (CharAt var36 928)))
(assert (= "S" (CharAt var47 869)))
(assert (= "G" (CharAt var22 906)))
(assert (= "&" (CharAt var60 608)))
(assert (= "Y" (CharAt var15 714)))
(assert (= "+" (CharAt var55 343)))
(assert (= "Q" (CharAt var12 693)))
(assert (= "i" (CharAt var19 355)))
(assert (= "n" (CharAt var15 253)))
(assert (= "_" (CharAt var51 262)))
(assert (= "[" (CharAt var29 850)))
(assert (= "m" (CharAt var40 369)))
(assert (= "3" (CharAt var55 614)))
(assert (= "9" (CharAt var60 723)))
(assert (= ">" (CharAt var29 817)))
(assert (= "&" (CharAt var60 932)))
(assert (= "e" (CharAt var53 297)))
(assert (= "z" (CharAt var26 16)))
(assert (= "8" (CharAt var25 569)))
(assert (= "c" (CharAt var20 287)))
(assert (= "S" (CharAt var51 542)))
(assert (= ")" (CharAt var43 787)))
(assert (= "I" (CharAt var49 58)))
(assert (= "-" (CharAt var5 514)))
(assert (= "i" (CharAt var28 371)))
(assert (= "2" (CharAt var6 201)))
(assert (= "_" (CharAt var53 180)))
(assert (= "K" (CharAt var2 775)))
(assert (= "k" (CharAt var50 758)))
(assert (= "#" (CharAt var31 536)))
(assert (= "s" (CharAt var23 456)))
(assert (= "z" (CharAt var4 649)))
(assert (= "&" (CharAt var0 719)))
(assert (= "B" (CharAt var18 650)))
(assert (= "q" (CharAt var12 611)))
(assert (= "g" (CharAt var55 160)))
(assert (= "g" (CharAt var58 838)))
(check-sat)
(get-model)